Academic license - for non-commercial use only
Gurobi Optimizer version 9.0.3 build v9.0.3rc0 (mac64)
Optimize a model with 191914 rows, 180720 columns and 1051770 nonzeros
Model fingerprint: 0xdff4dd52
Variable types: 0 continuous, 180720 integer (180720 binary)
Coefficient statistics:
  Matrix range     [1e+00, 1e+00]
  Objective range  [1e+01, 5e+04]
  Bounds range     [1e+00, 1e+00]
  RHS range        [1e+00, 5e+02]
Presolve added 0 rows and 4970 columns
Presolve removed 30 rows and 0 columns
Presolve time: 3.38s
Presolved: 191884 rows, 185690 columns, 766710 nonzeros
Variable types: 0 continuous, 185690 integer (185690 binary)
Found heuristic solution: objective 771624.00000

Concurrent LP optimizer: dual simplex and barrier
Showing barrier log only...

Root barrier log...

Ordering time: 0.05s

Barrier statistics:
 Dense cols : 360
 AA' NZ     : 5.947e+05
 Factor NZ  : 3.756e+06 (roughly 200 MBytes of memory)
 Factor Ops : 1.010e+09 (less than 1 second per iteration)
 Threads    : 3

                  Objective                Residual
Iter       Primal          Dual         Primal    Dual     Compl     Time
   0   2.06638372e+08 -2.89281829e+08  3.09e+02 3.05e+01  1.86e+04     5s
   1   1.41880799e+06 -3.61547943e+08  1.29e+00 9.20e+02  7.28e+02     5s
   2   9.83986703e+05 -2.01624358e+08  4.07e-01 4.92e+02  3.84e+02     6s
   3   8.97355297e+05 -9.63639910e+07  2.20e-01 2.29e+02  1.82e+02     6s
   4   8.18044673e+05 -2.70069337e+07  4.10e-02 5.94e+01  5.12e+01     6s
   5   7.82689411e+05 -1.93085046e+06  4.26e-03 2.42e+01  4.96e+00     6s
   6   7.43205916e+05  6.60404469e+04  2.36e-03 4.17e+00  1.23e+00     7s
   7   7.26178000e+05  1.64787397e+05  1.95e-03 3.38e+00  1.02e+00     7s
   8   7.12225966e+05  4.07011330e+05  1.66e-03 1.35e+00  5.52e-01     7s
   9   6.92640723e+05  4.82488205e+05  1.25e-03 8.82e-01  3.80e-01     7s
  10   6.82332514e+05  5.21834404e+05  1.07e-03 6.14e-01  2.90e-01     8s
  11   6.77529520e+05  5.54096318e+05  9.88e-04 3.97e-01  2.23e-01     8s
  12   6.61101616e+05  5.77900489e+05  7.20e-04 2.52e-01  1.50e-01     8s
  13   6.53094834e+05  5.90806551e+05  5.95e-04 1.58e-01  1.12e-01     9s
  14   6.44711414e+05  5.97736866e+05  4.76e-04 1.11e-01  8.45e-02     9s
  15   6.35165021e+05  6.02334971e+05  3.23e-04 8.03e-02  5.90e-02     9s
  16   6.31172282e+05  6.05269488e+05  2.59e-04 6.07e-02  4.66e-02    10s
  17   6.28979666e+05  6.07550676e+05  2.27e-04 4.56e-02  3.85e-02    10s
  18   6.26802438e+05  6.09166063e+05  1.92e-04 3.50e-02  3.17e-02    10s
  19   6.25341761e+05  6.10224058e+05  1.70e-04 2.84e-02  2.71e-02    10s
  20   6.23205931e+05  6.10938602e+05  1.36e-04 2.38e-02  2.20e-02    11s
  21   6.21814007e+05  6.11741564e+05  1.13e-04 1.93e-02  1.81e-02    11s
  22   6.20412081e+05  6.12183900e+05  9.13e-05 1.65e-02  1.48e-02    11s
  23   6.19513859e+05  6.12887738e+05  7.77e-05 1.22e-02  1.19e-02    12s
  24   6.19036638e+05  6.13462615e+05  7.03e-05 8.70e-03  1.00e-02    12s
  25   6.18428336e+05  6.13656990e+05  6.04e-05 7.46e-03  8.56e-03    12s
  26   6.17868952e+05  6.13851065e+05  5.17e-05 6.20e-03  7.21e-03    12s
  27   6.17085189e+05  6.13981156e+05  3.95e-05 5.62e-03  5.57e-03    13s
  28   6.16819113e+05  6.14102077e+05  3.53e-05 4.62e-03  4.88e-03    13s
  29   6.16494572e+05  6.14210947e+05  2.95e-05 3.96e-03  4.10e-03    13s
  30   6.16173905e+05  6.14258284e+05  2.38e-05 3.67e-03  3.44e-03    14s
  31   6.16016917e+05  6.14371828e+05  2.10e-05 3.04e-03  2.95e-03    14s
  32   6.15798328e+05  6.14441216e+05  1.71e-05 2.62e-03  2.44e-03    14s
  33   6.15697459e+05  6.14502069e+05  1.53e-05 2.26e-03  2.15e-03    15s
  34   6.15612437e+05  6.14596713e+05  1.37e-05 1.71e-03  1.82e-03    15s
  35   6.15539184e+05  6.14647108e+05  1.23e-05 1.42e-03  1.60e-03    15s
  36   6.15462751e+05  6.14689462e+05  1.10e-05 1.24e-03  1.39e-03    15s
  37   6.15402635e+05  6.14708955e+05  9.77e-06 1.12e-03  1.24e-03    16s
  38   6.15348792e+05  6.14721163e+05  8.73e-06 1.04e-03  1.13e-03    16s
  39   6.15330851e+05  6.14731482e+05  8.38e-06 9.80e-04  1.07e-03    16s
  40   6.15298934e+05  6.14746661e+05  7.75e-06 8.69e-04  9.90e-04    17s
  41   6.15210409e+05  6.14766210e+05  6.13e-06 7.47e-04  7.97e-04    17s
  42   6.15186785e+05  6.14782372e+05  5.66e-06 6.53e-04  7.25e-04    17s
  43   6.15140099e+05  6.14790708e+05  4.81e-06 6.05e-04  6.27e-04    17s
  44   6.15108853e+05  6.14807869e+05  4.23e-06 5.00e-04  5.40e-04    18s
  45   6.15101504e+05  6.14810377e+05  4.09e-06 4.84e-04  5.22e-04    18s
  46   6.15071787e+05  6.14823437e+05  3.55e-06 4.06e-04  4.45e-04    18s
  47   6.15067148e+05  6.14826797e+05  3.45e-06 3.86e-04  4.31e-04    18s
  48   6.15043688e+05  6.14836874e+05  2.99e-06 3.28e-04  3.71e-04    19s
  49   6.15024381e+05  6.14842695e+05  2.62e-06 2.93e-04  3.26e-04    19s
  50   6.15005063e+05  6.14855675e+05  2.24e-06 2.10e-04  2.68e-04    19s
  51   6.14991550e+05  6.14864155e+05  1.99e-06 1.66e-04  2.28e-04    20s
  52   6.14981213e+05  6.14870112e+05  1.78e-06 1.33e-04  1.99e-04    20s
  53   6.14973117e+05  6.14873270e+05  1.62e-06 1.15e-04  1.79e-04    20s
  54   6.14966978e+05  6.14874907e+05  1.50e-06 1.06e-04  1.65e-04    20s
  55   6.14958387e+05  6.14878675e+05  1.35e-06 8.94e-05  1.43e-04    21s
  56   6.14957141e+05  6.14879670e+05  1.33e-06 8.44e-05  1.39e-04    21s
  57   6.14945679e+05  6.14881176e+05  1.09e-06 7.20e-05  1.15e-04    21s
  58   6.14943420e+05  6.14882597e+05  1.05e-06 6.18e-05  1.09e-04    21s
  59   6.14933934e+05  6.14883467e+05  8.51e-07 5.68e-05  9.04e-05    22s
  60   6.14929155e+05  6.14884587e+05  7.49e-07 5.06e-05  7.98e-05    22s
  61   6.14927292e+05  6.14885485e+05  7.11e-07 4.61e-05  7.49e-05    22s
  62   6.14923740e+05  6.14885938e+05  6.35e-07 4.49e-05  6.77e-05    23s
  63   6.14921923e+05  6.14887278e+05  5.94e-07 3.80e-05  6.20e-05    23s
  64   6.14917458e+05  6.14888332e+05  4.97e-07 3.17e-05  5.21e-05    23s
  65   6.14911749e+05  6.14889170e+05  3.80e-07 2.68e-05  4.04e-05    23s
  66   6.14909086e+05  6.14889579e+05  3.21e-07 2.47e-05  3.49e-05    24s
  67   6.14908564e+05  6.14889901e+05  3.11e-07 2.31e-05  3.34e-05    24s
  68   6.14906935e+05  6.14890556e+05  2.76e-07 2.01e-05  2.93e-05    24s
  69   6.14905771e+05  6.14890749e+05  2.51e-07 1.95e-05  2.69e-05    24s
  70   6.14902836e+05  6.14892194e+05  1.86e-07 1.07e-05  1.91e-05    25s
  71   6.14901433e+05  6.14892379e+05  1.55e-07 9.80e-06  1.62e-05    25s
  72   6.14899721e+05  6.14893158e+05  1.17e-07 6.95e-06  1.17e-05    25s
  73   6.14899200e+05  6.14893346e+05  1.05e-07 6.02e-06  1.05e-05    25s
  74   6.14898277e+05  6.14893475e+05  8.43e-08 5.35e-06  8.60e-06    26s
  75   6.14897371e+05  6.14893733e+05  6.34e-08 4.15e-06  6.51e-06    26s
  76   6.14897141e+05  6.14893941e+05  5.82e-08 3.10e-06  5.72e-06    26s
  77   6.14896950e+05  6.14894044e+05  5.40e-08 2.54e-06  5.20e-06    26s
  78   6.14896342e+05  6.14894225e+05  4.00e-08 1.53e-06  3.79e-06    27s
  79   6.14895533e+05  6.14894345e+05  2.12e-08 1.06e-06  2.12e-06    27s
  80   6.14894995e+05  6.14894465e+05  9.21e-09 4.38e-07  9.48e-07    27s
  81   6.14894973e+05  6.14894491e+05  8.80e-09 3.27e-07  8.62e-07    27s
  82   6.14894730e+05  6.14894559e+05  3.39e-09 8.08e-08  3.07e-07    28s
  83   6.14894572e+05  6.14894571e+05  2.75e-11 1.26e-07  2.39e-09    28s

Barrier solved model in 83 iterations and 27.91 seconds
Optimal objective 6.14894572e+05


Root crossover log...

   58961 DPushes remaining with DInf 3.5364195e-06                28s
       0 DPushes remaining with DInf 0.0000000e+00                28s

    1293 PPushes remaining with PInf 0.0000000e+00                28s
       0 PPushes remaining with PInf 0.0000000e+00                28s

  Push phase complete: Pinf 0.0000000e+00, Dinf 1.4707879e-10     28s


Root simplex log...

Iteration    Objective       Primal Inf.    Dual Inf.      Time
    8211    6.1489457e+05   0.000000e+00   0.000000e+00     28s

Solved with barrier

Root relaxation: objective 6.148946e+05, 8211 iterations, 24.15 seconds
Total elapsed time = 30.25s

    Nodes    |    Current Node    |     Objective Bounds      |     Work
 Expl Unexpl |  Obj  Depth IntInf | Incumbent    BestBd   Gap | It/Node Time

     0     0 614894.571    0 11190 771624.000 614894.571  20.3%     -   30s
H    0     0                    621932.00000 614894.571  1.13%     -   31s
H    0     0                    620135.00000 614894.571  0.85%     -   45s
     0     0 614896.522    0 10801 620135.000 614896.522  0.84%     -   52s
     0     0 614898.463    0 11213 620135.000 614898.463  0.84%     -   54s
     0     0 614898.790    0 11203 620135.000 614898.790  0.84%     -   55s
     0     0 614909.498    0 10851 620135.000 614909.498  0.84%     -   64s
     0     0 614910.578    0 10829 620135.000 614910.578  0.84%     -   67s
     0     0 614911.313    0 10859 620135.000 614911.313  0.84%     -   68s
     0     0 614911.313    0 10859 620135.000 614911.313  0.84%     -   69s
     0     0 614929.507    0 11298 620135.000 614929.507  0.84%     -   81s
     0     0 614930.482    0 11267 620135.000 614930.482  0.84%     -   83s
     0     0 614930.582    0 11257 620135.000 614930.582  0.84%     -   84s
     0     0 614930.656    0 11259 620135.000 614930.656  0.84%     -   84s
     0     0 614931.307    0 11261 620135.000 614931.307  0.84%     -   85s
     0     0 614931.375    0 11255 620135.000 614931.375  0.84%     -   85s
     0     0 614942.963    0 11283 620135.000 614942.963  0.84%     -   96s
H    0     0                    620133.00000 614942.963  0.84%     -  120s
     0     0 614942.963    0 11281 620133.000 614942.963  0.84%     -  121s
     0     0 614951.923    0 11357 620133.000 614951.923  0.84%     -  130s
     0     0 614953.048    0 11371 620133.000 614953.048  0.84%     -  132s
     0     0 614953.218    0 11356 620133.000 614953.218  0.84%     -  132s
     0     0 614953.218    0 11357 620133.000 614953.218  0.84%     -  133s
     0     0 614960.340    0 11389 620133.000 614960.340  0.83%     -  140s
     0     0 614961.286    0 11369 620133.000 614961.286  0.83%     -  142s
     0     0 614961.503    0 11381 620133.000 614961.503  0.83%     -  143s
     0     0 614961.503    0 11383 620133.000 614961.503  0.83%     -  144s
     0     0 614968.690    0 11379 620133.000 614968.690  0.83%     -  152s
     0     0 614969.086    0 11375 620133.000 614969.086  0.83%     -  154s
     0     0 614969.265    0 11369 620133.000 614969.265  0.83%     -  154s
     0     0 614969.373    0 11363 620133.000 614969.373  0.83%     -  155s
     0     0 614969.391    0 11365 620133.000 614969.391  0.83%     -  156s
     0     0 614972.669    0 11421 620133.000 614972.669  0.83%     -  163s
     0     0 614973.082    0 11738 620133.000 614973.082  0.83%     -  166s
     0     0 614973.172    0 11970 620133.000 614973.172  0.83%     -  167s
     0     0 614973.178    0 11976 620133.000 614973.178  0.83%     -  168s
     0     0 614978.085    0 11388 620133.000 614978.085  0.83%     -  175s
     0     0 614978.478    0 11380 620133.000 614978.478  0.83%     -  176s
     0     0 614978.516    0 11386 620133.000 614978.516  0.83%     -  177s
     0     0 614978.555    0 11385 620133.000 614978.555  0.83%     -  181s
     0     0 614978.555    0 11385 620133.000 614978.555  0.83%     -  182s
     0     0 614978.557    0 11385 620133.000 614978.557  0.83%     -  185s
     0     0 614978.557    0 11386 620133.000 614978.557  0.83%     -  186s
     0     0 614990.547    0 11978 620133.000 614990.547  0.83%     -  196s
     0     0 614990.648    0 12012 620133.000 614990.648  0.83%     -  198s
     0     0 614990.718    0 11995 620133.000 614990.718  0.83%     -  198s
     0     0 614990.718    0 11998 620133.000 614990.718  0.83%     -  202s
     0     0 614990.718    0 12004 620133.000 614990.718  0.83%     -  203s
     0     0 614995.923    0 12025 620133.000 614995.923  0.83%     -  211s
     0     0 614996.873    0 12014 620133.000 614996.873  0.83%     -  213s
     0     0 614996.898    0 12028 620133.000 614996.898  0.83%     -  214s
     0     0 614996.911    0 12019 620133.000 614996.911  0.83%     -  218s
     0     0 614996.936    0 12024 620133.000 614996.936  0.83%     -  220s
     0     0 614996.936    0 12024 620133.000 614996.936  0.83%     -  223s
     0     0 614996.936    0 12026 620133.000 614996.936  0.83%     -  224s
     0     0 615002.535    0 12011 620133.000 615002.535  0.83%     -  233s
     0     0 615003.819    0 12005 620133.000 615003.819  0.83%     -  235s
     0     0 615003.843    0 12007 620133.000 615003.843  0.83%     -  235s
     0     0 615003.843    0 12015 620133.000 615003.843  0.83%     -  239s
H    0     0                    620128.00000 615003.843  0.83%     -  269s
     0     0 615003.843    0 11982 620128.000 615003.843  0.83%     -  284s

Cutting planes:
  Zero half: 252

Explored 1 nodes (29789 simplex iterations) in 300.05 seconds
Thread count was 8 (of 8 available processors)

Solution count 5: 620128 620133 620135 ... 771624

Time limit reached
Best objective 6.201280000000e+05, best bound 6.150040000000e+05, gap 0.8263%

User-callback calls 29130, time in user-callback 0.24 sec
Solution written to /Users/mdeboute/Desktop/Etudes/Master/M2/S9/GOPP/Projet/multi-period-flp/solution/instMulti_I30_J500_T12_1_result.txt
